#************************************************************************************
#*                   Generated by cif2cell 1.1.5 2014-07-20 13:16                   *
#*  T. Bjorkman, Comp. Phys. Commun. 182, 1183-1186 (2011). Please cite generously. *
#*                                                                                  *
#*                Data obtained from COD. Reference number : 1011063                *
#*                        H2 O   (Dihydrogen oxide - ice II)                        *
#*            McFarlan, R L, Journal of Chemical Physics 4, 60-64 (1936)            *
#************************************************************************************
# Structural parameters
acell    3*14.73986358  

rprim    0.500000000000000  -0.288461538461538   0.000000000000000 
         0.500000000000000   0.288461538461538   0.000000000000000 
         0.000000000000000   0.000000000000000   0.712820512820513 
       
natom    12  
ntypat   2  
typat    1 1 1 1 2 2 2 2 2 2 2 2  
znucl    8 1  
xred     0.962000000000000   0.372000000000000   0.178000000000000 
         0.628000000000000   0.038000000000000   0.322000000000000 
         0.038000000000000   0.628000000000000   0.678000000000000 
         0.372000000000000   0.962000000000000   0.822000000000000 
         0.167000000000000   0.167000000000000   0.000000000000000 
         0.833000000000000   0.833000000000000   0.500000000000000 
         0.750000000000000   0.250000000000000   0.250000000000000 
         0.250000000000000   0.750000000000000   0.750000000000000 
         0.795000000000000   0.705000000000000   0.250000000000000 
         0.295000000000000   0.205000000000000   0.250000000000000 
         0.205000000000000   0.295000000000000   0.750000000000000 
         0.705000000000000   0.795000000000000   0.750000000000000 
      
