 SYSTEM = CO dimer in a box
 ISMEAR = 0   ! Gaussian smearing
 LORBIT = 11
