System  = SrVO3

NBANDS = 36

ISMEAR = -5
EMIN = -20 ; EMAX = 20 ; NEDOS = 1000  # usefull energy range for density of states

EDIFF = 1E-8                           # high precision for groundstate calculation

KPAR = 3
