fcc:                             
 -10.93    
 0.5 0.5 0.0
 0.0 0.5 0.5
 0.5 0.0 0.5
   1  
Cartesian
0 0 0  
