fcc Pt, paw-PBE                         
   5.62024000000000     
     1.0000000000000000    0.0000000000000000    0.0000000000000000
     0.0000000000000000    1.0000000000000000    0.0000000000000000
     0.0000000000000000    0.0000000000000000    3.0000000000000000
   Pt
    17
Selective dynamics
Direct
  0.0000000000000000  0.0000000000000000  0.0000000000000000   F   F   F
  0.0000000000000000  0.5000000000000000  0.0000000000000000   F   F   F
  0.5000000000000000  0.0000000000000000  0.0000000000000000   F   F   F
  0.5000000000000000  0.5000000000000000  0.0000000000000000   F   F   F
  0.2500000000000000  0.2500000000000000  0.1178499999999971   F   F   F
  0.7500000000000000  0.2500000000000000  0.1178499999999971   F   F   F
  0.2500000000000000  0.7500000000000000  0.1178499999999971   F   F   F
  0.7500000000000000  0.7500000000000000  0.1178499999999971   F   F   F
  0.0000000000000000  0.0000000000000000  0.2344158210714065   T   T   T
  0.0000000000000000  0.5000000000000000  0.2344158210714065   T   T   T
  0.5000000000000000  0.0000000000000000  0.2344158210714065   T   T   T
  0.5000000000000000  0.5000000000000000  0.2344158210714065   T   T   T
  0.2500000000000000  0.2500000000000000  0.3491869941437374   F   T   T
  0.7500000000000000  0.2500000000000000  0.3491869941437374   T   T   T
  0.2500000000000000  0.7500000000000000  0.3491869941437374   F   T   T
  0.7500000000000000  0.7500000000000000  0.3491869941437374   T   T   T
  0.2500000000000000  0.5000000000000000  0.5090000000000000   F   F   T
 
