 fcc (100) surface
   3.55000000000000     
     0.5000000000000000    0.5000000000000000    0.0000000000000000
    -0.5000000000000000    0.5000000000000000    0.0000000000000000
     0.0000000000000000    0.0000000000000000    5.0000000000000000
   5
Selective dynamics
Direct
  0.0000000000000000  0.0000000000000000  0.0000000000000000   F   F   F
  0.5000000000000000  0.5000000000000000  0.1000000000000014   F   F   F
  0.0000000000000000  0.0000000000000000  0.2000000000000028   F   F   F
  0.5000000000000000  0.5000000000000000  0.3017001896389905   T   T   T
  0.0000000000000000  0.0000000000000000  0.3969957263425581   T   T   T
 
  0.00000000E+00  0.00000000E+00  0.00000000E+00
  0.00000000E+00  0.00000000E+00  0.00000000E+00
  0.00000000E+00  0.00000000E+00  0.00000000E+00
  0.00000000E+00  0.00000000E+00  0.00000000E+00
  0.00000000E+00  0.00000000E+00  0.00000000E+00
