 SYSTEM = O atom in a box
 ISMEAR = 0  ! Gaussian smearing
