MgO
-18.79350000000000000000
0.5 0.5 0.0
0.0 0.5 0.5
0.5 0.0 0.5
1 1
cart
0.00 0.00 0.00
0.50 0.0 0.0

