general:
  SYSTEM = fcc Ni
  ISTART = 0 ; ICHARG=2
  ENCUT  =    270
  ISMEAR =   -5 
  LORBIT=11
spin:
  ISPIN=2
  MAGMOM = 1

