Fe dimer                               
 1.00000000000000000
     8.0000000000000000    0.0000000000000000    0.0000000000000000
     0.0000000000000000    8.0000000000000000    0.0000000000000000
     0.0000000000000000    0.0000000000000000    8.0000000000000000
   2
Cartesian
 3.00  0.00  0.00
 5.00  0.00  0.00 
