general:
  SYSTEM = fcc Ni
  ISTART = 0 ; ICHARG=2
  ENCUT  =    270
  ISMEAR =    1  ; SIGMA = 0.2
  LORBIT=11
spin:
  ISPIN=2
  MAGMOM = 1

