SYSTEM        = Fe (100) monolayer
ISTART        = 0
ENCUT         = 270.00
LNONCOLLINEAR = .TRUE.
MAGMOM        = 0.0 0.0 3.0
VOSKOWN       = 1
LSORBIT       = .TRUE.

LMAXMIX       = 4
