fcc Fe 100 surface
 3.45
   .50000   .50000   .00000
  -.50000   .50000   .00000
   .00000   .00000  5.00000
  1
Cartesian
   .00000   .00000   .00000
