num_wann=8
num_bands=8 

# for GW uncomment 
exclude_bands 9-64


Begin Projections
Si:sp3
End Projections

dis_froz_max=9
dis_num_iter=1000

guiding_centres=true

# Bandstructure plot
#restart         =  plot
#bands_plot      =  true
#begin kpoint_path
#L 0.50000  0.50000 0.5000 G 0.00000  0.00000 0.0000
#G 0.00000  0.00000 0.0000 X 0.50000  0.00000 0.5000
#X 0.50000  0.00000 0.5000 K 0.37500 -0.37500 0.0000
#K 0.37500 -0.37500 0.0000 G 0.00000  0.00000 0.0000
#end kpoint_path
#bands_num_points 40
#bands_plot_format gnuplot xmgrace

begin unit_cell_cart
     2.7150000     2.7150000     0.0000000
     0.0000000     2.7150000     2.7150000
     2.7150000     0.0000000     2.7150000
end unit_cell_cart

begin atoms_cart
Si       0.0000000     0.0000000     0.0000000
Si       1.3575000     1.3575000     1.3575000
end atoms_cart

mp_grid =     4     4     4

begin kpoints
     0.0000000     0.0000000     0.0000000
     0.2500000     0.0000000     0.0000000
     0.5000000     0.0000000     0.0000000
     0.2500000     0.2500000     0.0000000
     0.5000000     0.2500000     0.0000000
    -0.2500000     0.2500000     0.0000000
     0.5000000     0.5000000     0.0000000
    -0.2500000     0.5000000     0.2500000
     0.0000000     0.2500000     0.0000000
     0.0000000     0.0000000     0.2500000
    -0.2500000    -0.2500000    -0.2500000
    -0.2500000     0.0000000     0.0000000
     0.0000000    -0.2500000     0.0000000
     0.0000000     0.0000000    -0.2500000
     0.2500000     0.2500000     0.2500000
     0.0000000     0.5000000     0.0000000
     0.0000000     0.0000000     0.5000000
    -0.5000000    -0.5000000    -0.5000000
     0.0000000     0.2500000     0.2500000
     0.2500000     0.0000000     0.2500000
    -0.2500000    -0.2500000     0.0000000
    -0.2500000     0.0000000    -0.2500000
     0.0000000    -0.2500000    -0.2500000
     0.0000000     0.5000000     0.2500000
     0.2500000     0.0000000     0.5000000
    -0.2500000    -0.2500000     0.2500000
    -0.5000000    -0.2500000    -0.5000000
     0.2500000     0.5000000     0.0000000
     0.2500000    -0.2500000    -0.2500000
    -0.5000000    -0.5000000    -0.2500000
     0.0000000     0.2500000     0.5000000
    -0.2500000     0.2500000    -0.2500000
    -0.2500000    -0.5000000    -0.5000000
     0.5000000     0.0000000     0.2500000
    -0.5000000    -0.2500000     0.0000000
     0.0000000    -0.5000000    -0.2500000
    -0.2500000     0.0000000    -0.5000000
     0.2500000     0.2500000    -0.2500000
     0.5000000     0.2500000     0.5000000
    -0.2500000    -0.5000000     0.0000000
    -0.2500000     0.2500000     0.2500000
     0.5000000     0.5000000     0.2500000
     0.0000000    -0.2500000    -0.5000000
     0.2500000    -0.2500000     0.2500000
     0.2500000     0.5000000     0.5000000
    -0.5000000     0.0000000    -0.2500000
     0.0000000    -0.2500000     0.2500000
     0.2500000     0.0000000    -0.2500000
    -0.2500000    -0.2500000    -0.5000000
     0.2500000     0.5000000     0.2500000
     0.2500000    -0.2500000     0.0000000
    -0.5000000    -0.2500000    -0.2500000
     0.2500000     0.2500000     0.5000000
     0.0000000     0.2500000    -0.2500000
    -0.2500000    -0.5000000    -0.2500000
     0.5000000     0.2500000     0.2500000
    -0.2500000     0.0000000     0.2500000
     0.0000000     0.5000000     0.5000000
     0.5000000     0.0000000     0.5000000
     0.2500000    -0.2500000     0.5000000
     0.5000000     0.2500000    -0.2500000
    -0.5000000    -0.2500000    -0.7500000
     0.2500000    -0.5000000    -0.2500000
    -0.2500000     0.2500000    -0.5000000
end kpoints
