bands_plot = true

begin kpoint_path
R  0.50000000  0.50000000  0.50000000  G  0.00000000  0.00000000  0.00000000
G  0.00000000  0.00000000  0.00000000  X  0.50000000  0.00000000  0.00000000
X  0.50000000  0.00000000  0.00000000  M  0.50000000  0.50000000  0.00000000
M  0.50000000  0.50000000  0.00000000  G  0.00000000  0.00000000  0.00000000
end kpoint_path

num_wann =    3

num_bands=    3

exclude_bands : 1-20, 24-48

begin projections
V:dxy;dxz;dyz
end projections
